NAME: random-77-12198
TYPE: TSP
COMMENT: size=77 seed=12198
DIMENSION: 156
EDGE_WEIGHT_TYPE: EUC_2D
NODE_COORD_SECTION
+0 786 514
-0 786 514
+1 934 366
-1 981 684
+2 712 935
-2 101 925
+3 424 929
-3 582 327
+4 404 171
-4 948 871
+5 470 543
-5 334 283
+6 193 465
-6 315 572
+7 690 539
-7 918 389
+8 329 900
-8 614 393
+9 590 280
-9 706 526
+10 55 761
-10 509 245
+11 321 268
-11 656 241
+12 490 705
-12 395 225
+13 884 521
-13 110 963
+14 254 805
-14 710 308
+15 958 230
-15 543 275
+16 953 719
-16 284 202
+17 824 81
-17 775 43
+18 517 112
-18 3 917
+19 208 458
-19 814 544
+20 11 349
-20 671 339
+21 636 297
-21 730 336
+22 721 818
-22 156 162
+23 183 416
-23 26 675
+24 946 918
-24 329 810
+25 760 177
-25 17 719
+26 1 353
-26 857 865
+27 419 232
-27 91 569
+28 202 995
-28 943 667
+29 760 37
-29 118 846
+30 957 483
-30 320 293
+31 641 938
-31 694 818
+32 906 645
-32 623 679
+33 285 479
-33 84 895
+34 145 23
-34 44 240
+35 714 400
-35 523 157
+36 850 478
-36 57 612
+37 805 362
-37 436 623
+38 371 70
-38 474 429
+39 607 359
-39 636 583
+40 473 471
-40 18 547
+41 262 906
-41 866 508
+42 89 144
-42 548 471
+43 646 358
-43 810 788
+44 258 226
-44 210 715
+45 69 467
-45 907 214
+46 550 855
-46 225 941
+47 357 660
-47 556 27
+48 549 286
-48 57 946
+49 528 632
-49 816 923
+50 924 855
-50 437 681
+51 215 107
-51 133 609
+52 595 256
-52 496 582
+53 901 633
-53 935 115
+54 735 800
-54 269 646
+55 201 123
-55 813 283
+56 672 214
-56 884 145
+57 290 491
-57 42 48
+58 767 873
-58 519 226
+59 623 290
-59 617 43
+60 96 229
-60 96 355
+61 936 136
-61 859 553
+62 872 392
-62 583 854
+63 833 222
-63 127 637
+64 919 991
-64 697 78
+65 353 574
-65 791 581
+66 549 841
-66 316 692
+67 690 836
-67 508 924
+68 115 587
-68 51 998
+69 332 425
-69 909 373
+70 446 290
-70 359 335
+71 320 85
-71 496 38
+72 687 823
-72 94 714
+73 144 642
-73 203 553
+74 682 682
-74 7 830
+75 170 304
-75 338 746
+76 64 753
-76 717 894
+77 376 300
-77 943 535
PRECEDENCE_SECTION
+0 -0
+1 -1
+2 -2
+3 -3
+4 -4
+5 -5
+6 -6
+7 -7
+8 -8
+9 -9
+10 -10
+11 -11
+12 -12
+13 -13
+14 -14
+15 -15
+16 -16
+17 -17
+18 -18
+19 -19
+20 -20
+21 -21
+22 -22
+23 -23
+24 -24
+25 -25
+26 -26
+27 -27
+28 -28
+29 -29
+30 -30
+31 -31
+32 -32
+33 -33
+34 -34
+35 -35
+36 -36
+37 -37
+38 -38
+39 -39
+40 -40
+41 -41
+42 -42
+43 -43
+44 -44
+45 -45
+46 -46
+47 -47
+48 -48
+49 -49
+50 -50
+51 -51
+52 -52
+53 -53
+54 -54
+55 -55
+56 -56
+57 -57
+58 -58
+59 -59
+60 -60
+61 -61
+62 -62
+63 -63
+64 -64
+65 -65
+66 -66
+67 -67
+68 -68
+69 -69
+70 -70
+71 -71
+72 -72
+73 -73
+74 -74
+75 -75
+76 -76
+77 -77
EOF
